g3 0 1 0	# problem d4n12R0R7d01d05
 12 6 1 0 0	# vars, constraints, objectives, ranges, eqns
 4 1	# nonlinear constraints, objectives
 0 0	# network constraints: nonlinear, linear
 12 12 12	# nonlinear vars in constraints, objectives, both
 0 0 0 1	# linear network variables; functions; arith, flags
 0 0 0 0 0	# discrete variables: binary, integer, nonlinear (b,c,o)
 72 12	# nonzeros in Jacobian, gradients
 0 0	# max name lengths: constraints, variables
 0 0 0 0 0	# common exprs: b,c,o,c1,o1
b
0 0.23 2.98
0 0.09 2.29
0 0.7 2.21
0 0.88 2.38
0 0.63 2.15
0 0.6 2.14
0 0.73 2.19
0 0.19 2.1
0 0.97 2.02
0 0.18 2.44
0 0.05 2.49
0 0.65 2.27
r
2 102.69
2 590.117
2 2860.67
2 140.608
2 42.817
2 64.04
C0
o54
4
o2
o2
n9.5
v1
v8
o2
o2
n8.3
v3
v3
o2
o2
n3.72
v6
v8
o2
o2
n1.09
v7
v9
C1
o54
44
o2
o2
n2.32
v1
v8
o2
o2
n6.2
v3
v3
o2
o2
n0.73
v6
v8
o2
o2
n5.91
v7
v9
o2
o2
o2
n2.67
v0
v0
v1
o2
o2
o2
n0.92
v0
v0
v4
o2
o2
o2
n5.1
v0
v0
v11
o2
o2
o2
n6.23
v0
v1
v3
o2
o2
o2
n4.81
v0
v4
v9
o2
o2
o2
n9.88
v1
v1
v1
o2
o2
o2
n6.79
v1
v1
v8
o2
o2
o2
n0.9
v1
v2
v5
o2
o2
o2
n8.45
v1
v2
v8
o2
o2
o2
n9.55
v1
v3
v5
o2
o2
o2
n3.68
v1
v4
v9
o2
o2
o2
n6.18
v1
v4
v11
o2
o2
o2
n5.76
v1
v5
v8
o2
o2
o2
n0.56
v1
v5
v10
o2
o2
o2
n3.39
v1
v8
v11
o2
o2
o2
n8.04
v1
v11
v11
o16
o2
o2
o2
n8.66
v2
v3
v9
o2
o2
o2
n4.13
v2
v4
v8
o2
o2
o2
n1.21
v2
v5
v5
o2
o2
o2
n4.22
v2
v5
v6
o2
o2
o2
n7.5
v3
v3
v7
o2
o2
o2
n9.73
v3
v3
v10
o2
o2
o2
n9.38
v3
v6
v11
o2
o2
o2
n7.54
v3
v9
v9
o2
o2
o2
n0.93
v4
v4
v6
o2
o2
o2
n4.05
v4
v4
v7
o2
o2
o2
n7.63
v4
v6
v8
o2
o2
o2
n0.51
v4
v6
v9
o2
o2
o2
n7.04
v4
v9
v10
o2
o2
o2
n1.21
v5
v5
v8
o2
o2
o2
n4.88
v5
v6
v11
o16
o2
o2
o2
n1.07
v5
v7
v9
o2
o2
o2
n5.73
v5
v9
v9
o2
o2
o2
n4.16
v5
v10
v11
o2
o2
o2
n2.29
v6
v6
v7
o2
o2
o2
n9.75
v6
v7
v11
o2
o2
o2
n2.36
v6
v10
v11
o2
o2
o2
n7.43
v7
v7
v11
o2
o2
o2
n7.51
v7
v8
v8
o2
o2
o2
n7.93
v9
v10
v11
C2
o54
181
o2
o2
n4.56
v1
v8
o16
o2
o2
n4.51
v3
v3
o2
o2
n9.82
v6
v8
o2
o2
n4.87
v7
v9
o2
o2
o2
n3.76
v0
v0
v1
o2
o2
o2
n7.77
v0
v0
v4
o2
o2
o2
n1.3
v0
v0
v11
o2
o2
o2
n1.78
v0
v1
v3
o2
o2
o2
n8.43
v0
v4
v9
o2
o2
o2
n9.55
v1
v1
v1
o2
o2
o2
n8.61
v1
v1
v8
o2
o2
o2
n8.22
v1
v2
v5
o2
o2
o2
n8.79
v1
v2
v8
o2
o2
o2
n5.73
v1
v3
v5
o2
o2
o2
n8.99
v1
v4
v9
o2
o2
o2
n9.67
v1
v4
v11
o2
o2
o2
n4.57
v1
v5
v8
o2
o2
o2
n0.27
v1
v5
v10
o2
o2
o2
n5.26
v1
v8
v11
o2
o2
o2
n3.98
v1
v11
v11
o2
o2
o2
n9.93
v2
v3
v9
o2
o2
o2
n9.23
v2
v4
v8
o2
o2
o2
n1.29
v2
v5
v5
o2
o2
o2
n1.05
v2
v5
v6
o2
o2
o2
n9.51
v3
v3
v7
o16
o2
o2
o2
n5.92
v3
v3
v10
o2
o2
o2
n8.76
v3
v6
v11
o2
o2
o2
n3.59
v3
v9
v9
o2
o2
o2
n5.89
v4
v4
v6
o16
o2
o2
o2
n7.33
v4
v4
v7
o2
o2
o2
n5.17
v4
v6
v8
o2
o2
o2
n9.19
v4
v6
v9
o2
o2
o2
n8.2
v4
v9
v10
o16
o2
o2
o2
n1.87
v5
v5
v8
o2
o2
o2
n3.11
v5
v6
v11
o2
o2
o2
n3.68
v5
v7
v9
o2
o2
o2
n1.98
v5
v9
v9
o2
o2
o2
n8.29
v5
v10
v11
o16
o2
o2
o2
n0.74
v6
v6
v7
o2
o2
o2
n5.66
v6
v7
v11
o2
o2
o2
n0.34
v6
v10
v11
o2
o2
o2
n5.87
v7
v7
v11
o16
o2
o2
o2
n3.57
v7
v8
v8
o16
o2
o2
o2
n2.32
v9
v10
v11
o2
o2
o2
o2
n6.32
v0
v0
v0
v2
o2
o2
o2
o2
n5.88
v0
v0
v0
v10
o2
o2
o2
o2
n7.48
v0
v0
v2
v2
o2
o2
o2
o2
n6.55
v0
v0
v2
v4
o2
o2
o2
o2
n6.55
v0
v0
v3
v8
o2
o2
o2
o2
n4.26
v0
v0
v4
v9
o2
o2
o2
o2
n2.95
v0
v0
v5
v5
o2
o2
o2
o2
n5.23
v0
v0
v5
v6
o2
o2
o2
o2
n6.12
v0
v0
v5
v10
o2
o2
o2
o2
n5.6
v0
v0
v6
v6
o2
o2
o2
o2
n0.56
v0
v0
v8
v8
o2
o2
o2
o2
n8.79
v0
v0
v11
v11
o2
o2
o2
o2
n4.69
v0
v1
v4
v7
o2
o2
o2
o2
n8.27
v0
v1
v4
v9
o16
o2
o2
o2
o2
n7.78
v0
v1
v5
v10
o2
o2
o2
o2
n2.07
v0
v1
v6
v11
o2
o2
o2
o2
n3.91
v0
v1
v8
v9
o2
o2
o2
o2
n0.93
v0
v1
v8
v10
o16
o2
o2
o2
o2
n6.99
v0
v1
v11
v11
o2
o2
o2
o2
n6.34
v0
v2
v4
v5
o2
o2
o2
o2
n6.04
v0
v2
v6
v6
o2
o2
o2
o2
n0.21
v0
v2
v7
v8
o2
o2
o2
o2
n4.67
v0
v3
v3
v10
o2
o2
o2
o2
n2.67
v0
v3
v5
v6
o2
o2
o2
o2
n3.82
v0
v3
v7
v8
o2
o2
o2
o2
n9.62
v0
v3
v10
v10
o2
o2
o2
o2
n1.97
v0
v4
v4
v10
o2
o2
o2
o2
n6.47
v0
v4
v5
v7
o2
o2
o2
o2
n1.62
v0
v4
v5
v10
o2
o2
o2
o2
n9.78
v0
v4
v7
v9
o2
o2
o2
o2
n6.44
v0
v4
v8
v11
o2
o2
o2
o2
n3.3
v0
v4
v9
v11
o2
o2
o2
o2
n7.81
v0
v5
v5
v5
o2
o2
o2
o2
n9.87
v0
v5
v6
v8
o2
o2
o2
o2
n5.07
v0
v5
v7
v7
o2
o2
o2
o2
n5.98
v0
v5
v7
v10
o2
o2
o2
o2
n8.4
v0
v5
v8
v10
o2
o2
o2
o2
n0.29
v0
v6
v8
v11
o2
o2
o2
o2
n8.48
v0
v6
v9
v10
o2
o2
o2
o2
n2.88
v0
v7
v9
v11
o2
o2
o2
o2
n1.91
v0
v8
v8
v11
o2
o2
o2
o2
n6.64
v0
v10
v11
v11
o2
o2
o2
o2
n6.51
v0
v11
v11
v11
o2
o2
o2
o2
n7.5
v1
v1
v2
v9
o2
o2
o2
o2
n5.53
v1
v1
v3
v7
o2
o2
o2
o2
n4.9
v1
v1
v6
v9
o2
o2
o2
o2
n4.91
v1
v1
v7
v7
o2
o2
o2
o2
n9.28
v1
v1
v9
v11
o2
o2
o2
o2
n2.49
v1
v2
v2
v6
o2
o2
o2
o2
n7.88
v1
v2
v3
v6
o2
o2
o2
o2
n3.41
v1
v2
v3
v11
o2
o2
o2
o2
n5.69
v1
v2
v4
v4
o2
o2
o2
o2
n0.66
v1
v2
v4
v10
o2
o2
o2
o2
n2.9
v1
v2
v6
v6
o2
o2
o2
o2
n4.9
v1
v3
v3
v3
o2
o2
o2
o2
n5.53
v1
v3
v4
v6
o2
o2
o2
o2
n2.5
v1
v3
v4
v8
o2
o2
o2
o2
n0.76
v1
v3
v8
v8
o16
o2
o2
o2
o2
n6.02
v1
v3
v10
v10
o2
o2
o2
o2
n3.52
v1
v4
v5
v8
o16
o2
o2
o2
o2
n6.12
v1
v4
v7
v7
o16
o2
o2
o2
o2
n5.92
v1
v4
v7
v10
o2
o2
o2
o2
n8.87
v1
v5
v6
v6
o2
o2
o2
o2
n6.09
v1
v5
v7
v10
o2
o2
o2
o2
n7.72
v1
v5
v8
v11
o2
o2
o2
o2
n7.95
v1
v7
v10
v11
o2
o2
o2
o2
n4.02
v1
v9
v9
v10
o2
o2
o2
o2
n8.51
v1
v9
v10
v10
o2
o2
o2
o2
n5.2
v1
v9
v10
v11
o16
o2
o2
o2
o2
n4.23
v1
v9
v11
v11
o2
o2
o2
o2
n4.77
v2
v2
v2
v3
o2
o2
o2
o2
n3.11
v2
v2
v5
v6
o2
o2
o2
o2
n3.02
v2
v2
v6
v7
o2
o2
o2
o2
n3.87
v2
v2
v6
v8
o2
o2
o2
o2
n2.68
v2
v2
v7
v9
o2
o2
o2
o2
n8.97
v2
v2
v9
v11
o2
o2
o2
o2
n8.39
v2
v3
v6
v6
o2
o2
o2
o2
n2.95
v2
v3
v8
v8
o2
o2
o2
o2
n4.31
v2
v4
v4
v10
o2
o2
o2
o2
n2.65
v2
v4
v5
v10
o16
o2
o2
o2
o2
n8.6
v2
v4
v8
v9
o2
o2
o2
o2
n0.91
v2
v4
v10
v10
o2
o2
o2
o2
n9.21
v2
v5
v8
v9
o2
o2
o2
o2
n0.29
v2
v6
v6
v6
o2
o2
o2
o2
n9.67
v2
v6
v7
v8
o2
o2
o2
o2
n8.31
v2
v6
v7
v9
o2
o2
o2
o2
n9.22
v2
v6
v10
v11
o2
o2
o2
o2
n0.94
v3
v3
v3
v9
o2
o2
o2
o2
n6.23
v3
v3
v6
v7
o2
o2
o2
o2
n5.71
v3
v3
v10
v10
o2
o2
o2
o2
n8.95
v3
v5
v7
v10
o2
o2
o2
o2
n1.12
v3
v6
v6
v8
o2
o2
o2
o2
n2.68
v3
v6
v7
v11
o2
o2
o2
o2
n3.91
v3
v6
v8
v8
o2
o2
o2
o2
n7.52
v3
v6
v9
v10
o2
o2
o2
o2
n0.65
v3
v7
v8
v8
o2
o2
o2
o2
n5.53
v3
v7
v9
v10
o2
o2
o2
o2
n5.38
v3
v10
v10
v10
o16
o2
o2
o2
o2
n1.62
v3
v11
v11
v11
o2
o2
o2
o2
n9.7
v4
v4
v4
v9
o2
o2
o2
o2
n7.06
v4
v4
v5
v10
o2
o2
o2
o2
n6.96
v4
v4
v6
v7
o2
o2
o2
o2
n9.72
v4
v4
v6
v9
o2
o2
o2
o2
n7.13
v4
v4
v7
v11
o2
o2
o2
o2
n0.18
v4
v5
v5
v10
o2
o2
o2
o2
n3.8
v4
v5
v8
v10
o2
o2
o2
o2
n7.61
v4
v6
v6
v9
o2
o2
o2
o2
n0.04
v4
v6
v10
v11
o2
o2
o2
o2
n4.62
v4
v8
v9
v10
o16
o2
o2
o2
o2
n4.54
v5
v5
v5
v10
o2
o2
o2
o2
n5.12
v5
v5
v6
v6
o2
o2
o2
o2
n4.63
v5
v5
v7
v8
o2
o2
o2
o2
n4.22
v5
v5
v8
v9
o2
o2
o2
o2
n7.8
v5
v6
v8
v10
o2
o2
o2
o2
n4.19
v5
v6
v9
v10
o2
o2
o2
o2
n8.22
v5
v7
v7
v7
o2
o2
o2
o2
n5.65
v5
v7
v8
v11
o2
o2
o2
o2
n9.83
v5
v8
v9
v10
o2
o2
o2
o2
n8.04
v5
v8
v11
v11
o16
o2
o2
o2
o2
n2.6
v6
v6
v8
v11
o2
o2
o2
o2
n8.25
v6
v6
v10
v11
o2
o2
o2
o2
n3.48
v6
v7
v7
v11
o2
o2
o2
o2
n1.77
v6
v7
v8
v9
o16
o2
o2
o2
o2
n8.61
v6
v7
v9
v10
o2
o2
o2
o2
n5.15
v6
v8
v8
v11
o2
o2
o2
o2
n8.39
v6
v11
v11
v11
o2
o2
o2
o2
n4.05
v7
v7
v7
v8
o2
o2
o2
o2
n1.92
v7
v7
v7
v9
o2
o2
o2
o2
n5.71
v7
v8
v8
v8
o2
o2
o2
o2
n2.42
v7
v8
v8
v9
o2
o2
o2
o2
n0.16
v7
v8
v9
v11
o2
o2
o2
o2
n0.13
v7
v8
v11
v11
o2
o2
o2
o2
n9.07
v7
v9
v9
v10
o2
o2
o2
o2
n4.37
v7
v9
v9
v11
o2
o2
o2
o2
n6.25
v8
v8
v9
v9
o2
o2
o2
o2
n1.11
v8
v8
v9
v11
o2
o2
o2
o2
n9.11
v9
v9
v9
v9
C3
o54
4
o2
o2
n4.3
v1
v8
o2
o2
n6.93
v3
v3
o2
o2
n5.37
v6
v8
o2
o2
n1.33
v7
v9
C4
n0
C5
n0
O0 0
o54
181
o2
o2
n0.63
v1
v8
o2
o2
n5.76
v3
v3
o2
o2
n0.23
v6
v8
o2
o2
n9.24
v7
v9
o2
o2
o2
n3.37
v0
v0
v1
o2
o2
o2
n4.4
v0
v0
v4
o2
o2
o2
n0.9
v0
v0
v11
o16
o2
o2
o2
n3.99
v0
v1
v3
o2
o2
o2
n3.98
v0
v4
v9
o2
o2
o2
n6.98
v1
v1
v1
o2
o2
o2
n9.61
v1
v1
v8
o2
o2
o2
n0.5
v1
v2
v5
o2
o2
o2
n9.84
v1
v2
v8
o16
o2
o2
o2
n5.56
v1
v3
v5
o2
o2
o2
n6.39
v1
v4
v9
o2
o2
o2
n0.85
v1
v4
v11
o2
o2
o2
n7.09
v1
v5
v8
o2
o2
o2
n3.56
v1
v5
v10
o2
o2
o2
n5.87
v1
v8
v11
o2
o2
o2
n1.35
v1
v11
v11
o2
o2
o2
n2.68
v2
v3
v9
o2
o2
o2
n4.4
v2
v4
v8
o2
o2
o2
n5.04
v2
v5
v5
o2
o2
o2
n1.84
v2
v5
v6
o2
o2
o2
n7.74
v3
v3
v7
o2
o2
o2
n1.35
v3
v3
v10
o2
o2
o2
n2.18
v3
v6
v11
o2
o2
o2
n6.19
v3
v9
v9
o2
o2
o2
n2.11
v4
v4
v6
o16
o2
o2
o2
n8.66
v4
v4
v7
o2
o2
o2
n7.03
v4
v6
v8
o2
o2
o2
n4.03
v4
v6
v9
o2
o2
o2
n0.17
v4
v9
v10
o2
o2
o2
n4
v5
v5
v8
o2
o2
o2
n2.25
v5
v6
v11
o2
o2
o2
n3.82
v5
v7
v9
o16
o2
o2
o2
n7.92
v5
v9
v9
o2
o2
o2
n2.03
v5
v10
v11
o2
o2
o2
n6.13
v6
v6
v7
o2
o2
o2
n7.01
v6
v7
v11
o2
o2
o2
n1.28
v6
v10
v11
o2
o2
o2
n9.29
v7
v7
v11
o2
o2
o2
n6.5
v7
v8
v8
o2
o2
o2
n3.67
v9
v10
v11
o16
o2
o2
o2
o2
n5.69
v0
v0
v0
v2
o2
o2
o2
o2
n0.38
v0
v0
v0
v10
o16
o2
o2
o2
o2
n5.96
v0
v0
v2
v2
o2
o2
o2
o2
n9.13
v0
v0
v2
v4
o2
o2
o2
o2
n6.9
v0
v0
v3
v8
o2
o2
o2
o2
n5.29
v0
v0
v4
v9
o2
o2
o2
o2
n8.32
v0
v0
v5
v5
o2
o2
o2
o2
n2.08
v0
v0
v5
v6
o2
o2
o2
o2
n3.06
v0
v0
v5
v10
o2
o2
o2
o2
n8.07
v0
v0
v6
v6
o2
o2
o2
o2
n6.29
v0
v0
v8
v8
o2
o2
o2
o2
n3.77
v0
v0
v11
v11
o2
o2
o2
o2
n8.03
v0
v1
v4
v7
o2
o2
o2
o2
n6.68
v0
v1
v4
v9
o2
o2
o2
o2
n0.39
v0
v1
v5
v10
o16
o2
o2
o2
o2
n8.54
v0
v1
v6
v11
o2
o2
o2
o2
n5.97
v0
v1
v8
v9
o2
o2
o2
o2
n4.15
v0
v1
v8
v10
o2
o2
o2
o2
n9.22
v0
v1
v11
v11
o2
o2
o2
o2
n5.57
v0
v2
v4
v5
o2
o2
o2
o2
n7.11
v0
v2
v6
v6
o2
o2
o2
o2
n0.95
v0
v2
v7
v8
o2
o2
o2
o2
n0.83
v0
v3
v3
v10
o2
o2
o2
o2
n1.91
v0
v3
v5
v6
o2
o2
o2
o2
n4.9
v0
v3
v7
v8
o2
o2
o2
o2
n8.63
v0
v3
v10
v10
o2
o2
o2
o2
n5.48
v0
v4
v4
v10
o2
o2
o2
o2
n6.7
v0
v4
v5
v7
o2
o2
o2
o2
n4.25
v0
v4
v5
v10
o2
o2
o2
o2
n4.69
v0
v4
v7
v9
o2
o2
o2
o2
n9.53
v0
v4
v8
v11
o2
o2
o2
o2
n6.71
v0
v4
v9
v11
o2
o2
o2
o2
n1.14
v0
v5
v5
v5
o2
o2
o2
o2
n8.73
v0
v5
v6
v8
o2
o2
o2
o2
n0.66
v0
v5
v7
v7
o16
o2
o2
o2
o2
n3.08
v0
v5
v7
v10
o2
o2
o2
o2
n3.46
v0
v5
v8
v10
o2
o2
o2
o2
n9.82
v0
v6
v8
v11
o2
o2
o2
o2
n4.34
v0
v6
v9
v10
o2
o2
o2
o2
n9.35
v0
v7
v9
v11
o2
o2
o2
o2
n3.04
v0
v8
v8
v11
o2
o2
o2
o2
n5.14
v0
v10
v11
v11
o2
o2
o2
o2
n1.47
v0
v11
v11
v11
o2
o2
o2
o2
n0.68
v1
v1
v2
v9
o2
o2
o2
o2
n8.97
v1
v1
v3
v7
o16
o2
o2
o2
o2
n9.84
v1
v1
v6
v9
o16
o2
o2
o2
o2
n7.37
v1
v1
v7
v7
o2
o2
o2
o2
n4.4
v1
v1
v9
v11
o2
o2
o2
o2
n2.22
v1
v2
v2
v6
o2
o2
o2
o2
n8.22
v1
v2
v3
v6
o2
o2
o2
o2
n1.97
v1
v2
v3
v11
o2
o2
o2
o2
n1.72
v1
v2
v4
v4
o16
o2
o2
o2
o2
n1.41
v1
v2
v4
v10
o2
o2
o2
o2
n6.06
v1
v2
v6
v6
o2
o2
o2
o2
n1.22
v1
v3
v3
v3
o2
o2
o2
o2
n0.8
v1
v3
v4
v6
o2
o2
o2
o2
n9.89
v1
v3
v4
v8
o2
o2
o2
o2
n4.31
v1
v3
v8
v8
o2
o2
o2
o2
n9.84
v1
v3
v10
v10
o2
o2
o2
o2
n0.94
v1
v4
v5
v8
o2
o2
o2
o2
n4.08
v1
v4
v7
v7
o2
o2
o2
o2
n3.92
v1
v4
v7
v10
o2
o2
o2
o2
n5.21
v1
v5
v6
v6
o2
o2
o2
o2
n8.15
v1
v5
v7
v10
o2
o2
o2
o2
n3.03
v1
v5
v8
v11
o2
o2
o2
o2
n1.98
v1
v7
v10
v11
o2
o2
o2
o2
n2.62
v1
v9
v9
v10
o2
o2
o2
o2
n1.86
v1
v9
v10
v10
o2
o2
o2
o2
n9.23
v1
v9
v10
v11
o2
o2
o2
o2
n9.14
v1
v9
v11
v11
o2
o2
o2
o2
n1.66
v2
v2
v2
v3
o2
o2
o2
o2
n2.94
v2
v2
v5
v6
o2
o2
o2
o2
n0.68
v2
v2
v6
v7
o16
o2
o2
o2
o2
n8.21
v2
v2
v6
v8
o2
o2
o2
o2
n3.97
v2
v2
v7
v9
o2
o2
o2
o2
n2.99
v2
v2
v9
v11
o2
o2
o2
o2
n4.25
v2
v3
v6
v6
o2
o2
o2
o2
n4.05
v2
v3
v8
v8
o2
o2
o2
o2
n2.13
v2
v4
v4
v10
o2
o2
o2
o2
n4.81
v2
v4
v5
v10
o2
o2
o2
o2
n0.19
v2
v4
v8
v9
o16
o2
o2
o2
o2
n4.72
v2
v4
v10
v10
o2
o2
o2
o2
n9.91
v2
v5
v8
v9
o16
o2
o2
o2
o2
n4.16
v2
v6
v6
v6
o2
o2
o2
o2
n8
v2
v6
v7
v8
o2
o2
o2
o2
n3.82
v2
v6
v7
v9
o2
o2
o2
o2
n3.67
v2
v6
v10
v11
o2
o2
o2
o2
n2.78
v3
v3
v3
v9
o2
o2
o2
o2
n3.45
v3
v3
v6
v7
o2
o2
o2
o2
n4.18
v3
v3
v10
v10
o2
o2
o2
o2
n5.07
v3
v5
v7
v10
o2
o2
o2
o2
n2.67
v3
v6
v6
v8
o2
o2
o2
o2
n6.97
v3
v6
v7
v11
o2
o2
o2
o2
n2.68
v3
v6
v8
v8
o2
o2
o2
o2
n5.05
v3
v6
v9
v10
o2
o2
o2
o2
n1.53
v3
v7
v8
v8
o2
o2
o2
o2
n3.16
v3
v7
v9
v10
o2
o2
o2
o2
n6.45
v3
v10
v10
v10
o2
o2
o2
o2
n8.96
v3
v11
v11
v11
o16
o2
o2
o2
o2
n9.61
v4
v4
v4
v9
o2
o2
o2
o2
n1.62
v4
v4
v5
v10
o2
o2
o2
o2
n0.21
v4
v4
v6
v7
o2
o2
o2
o2
n3.05
v4
v4
v6
v9
o2
o2
o2
o2
n7.64
v4
v4
v7
v11
o2
o2
o2
o2
n9.05
v4
v5
v5
v10
o2
o2
o2
o2
n4.88
v4
v5
v8
v10
o16
o2
o2
o2
o2
n2.17
v4
v6
v6
v9
o2
o2
o2
o2
n6.11
v4
v6
v10
v11
o2
o2
o2
o2
n2.55
v4
v8
v9
v10
o2
o2
o2
o2
n7.55
v5
v5
v5
v10
o2
o2
o2
o2
n8.68
v5
v5
v6
v6
o2
o2
o2
o2
n5.8
v5
v5
v7
v8
o2
o2
o2
o2
n4.19
v5
v5
v8
v9
o2
o2
o2
o2
n2.51
v5
v6
v8
v10
o2
o2
o2
o2
n2.68
v5
v6
v9
v10
o2
o2
o2
o2
n9.53
v5
v7
v7
v7
o2
o2
o2
o2
n6.81
v5
v7
v8
v11
o2
o2
o2
o2
n3.69
v5
v8
v9
v10
o2
o2
o2
o2
n3.43
v5
v8
v11
v11
o16
o2
o2
o2
o2
n5.14
v6
v6
v8
v11
o2
o2
o2
o2
n1.15
v6
v6
v10
v11
o2
o2
o2
o2
n8.31
v6
v7
v7
v11
o2
o2
o2
o2
n2.07
v6
v7
v8
v9
o2
o2
o2
o2
n9.77
v6
v7
v9
v10
o2
o2
o2
o2
n4.11
v6
v8
v8
v11
o2
o2
o2
o2
n1.71
v6
v11
v11
v11
o2
o2
o2
o2
n5.55
v7
v7
v7
v8
o2
o2
o2
o2
n5.39
v7
v7
v7
v9
o2
o2
o2
o2
n8.35
v7
v8
v8
v8
o2
o2
o2
o2
n3.51
v7
v8
v8
v9
o2
o2
o2
o2
n1.81
v7
v8
v9
v11
o2
o2
o2
o2
n5.51
v7
v8
v11
v11
o2
o2
o2
o2
n3.09
v7
v9
v9
v10
o2
o2
o2
o2
n5
v7
v9
v9
v11
o2
o2
o2
o2
n6.25
v8
v8
v9
v9
o2
o2
o2
o2
n3.22
v8
v8
v9
v11
o16
o2
o2
o2
o2
n6.22
v9
v9
v9
v9
k11
6
12
18
24
30
36
42
48
54
60
66
J0 12
0 0.15
1 0.77
2 0.15
3 3.56
4 1.82
5 6.72
6 5.18
7 1.69
8 6.73
9 8.21
10 3.26
11 0.42
J1 12
0 0.49
1 4.03
2 4.48
3 5.26
4 -4.43
5 4.17
6 1.39
7 8.01
8 -0.26
9 8.13
10 8.68
11 2.53
J2 12
0 2.61
1 1.05
2 0.18
3 7.45
4 -8.65
5 5.73
6 8.68
7 1.39
8 6.47
9 9.31
10 8.17
11 6.18
J3 12
0 5.84
1 6.76
2 9.21
3 6.77
4 8.08
5 0.52
6 0.29
7 2.39
8 8.97
9 5.12
10 9.83
11 7.72
J4 12
0 7.76
1 9.44
2 0.44
3 -7.58
4 3.54
5 -6.01
6 8.41
7 3.53
8 5.42
9 -4.9
10 9.5
11 2.8
J5 12
0 7.92
1 4.83
2 2.52
3 0.55
4 6.81
5 1.53
6 2.66
7 6.32
8 1.29
9 3.12
10 2.55
11 6.22
G0 12
0 8.83
1 6.55
2 9.36
3 9.49
4 9.4
5 5.63
6 8.75
7 -1.32
8 6.33
9 2.92
10 5.78
11 0.46
